(
(define-fun top () _STUB3_GRAMMAR_ELEMENT (_stub3_grammar_element_con0 (ac_element_id_con0 _stub1_grammar_element_con) _stub0_grammar_element_con (ac_element_id_extension_con0 _stub2_grammar_element_con) (as seq.empty (Seq Bool))))
)
